NAME = SAfile175,
TOURSIZE = 175,
LENGTH = 21449,
142,60,175,124,8,125,155,57,14,150,147,169,28,168,23,65,100,160,58,6,42,146,16,35,163,117,67,98,156,79,61,75,108,161,136,97,44,172,157,82,47,37,38,113,74,7,87,154,166,68,29,133,116,45,9,15,62,25,139,110,83,2,137,17,119,171,46,89,148,49,118,72,26,5,39,120,19,93,69,31,114,48,92,170,53,64,159,105,50,103,167,123,102,144,80,32,81,71,91,85,104,112,151,84,13,127,101,73,1,131,40,129,55,106,51,107,12,121,22,165,126,27,164,33,18,122,10,77,66,128,59,11,173,24,70,149,153,140,99,132,36,41,134,21,115,138,52,43,20,109,4,174,96,145,63,78,162,34,130,143,95,54,141,152,88,135,94,90,158,111,76,86,56,30,3